51 50 56 43 43 51 48 54 40 58 50 49 46 60 50 51 48 51 41 65 42 52 54 51 49 48 48 59 47 46 42 49 47 47 51 47 54 54 47 48 53 41 48 56 54 49 54 64 42 49 48 56 47 48 50 40 49 49 46 56 49 58 49 43 49 52 61 53 48 50 56 46 51 44 48 46 54 57 51 52 57 53 51 51 48 51 50 48 46 54 48 52 52 56 53 43 51 57 55 62 